5
25
0 36000
16860 24060
26220 33420
780 7980
9720 16920
17040 24240
20820 28020
10140 17340
9600 16800
27840 35040
22380 29580
26160 33360
21900 29100
18900 26100
1140 8340
10140 17340
27660 34860
20340 27540
5700 12900
5640 12840
20520 27720
24000 31200
26460 33660
180 7380
18300 25500
7200 14400